74 33 54 183 42 139 31 91 190 98 6 136 1 194 187 35 67 172 169 81 71 196 115 195 162 182 146 160 40 129 80 168 22 116 132 131 101 43 69 122 70 58 119 12 96 111 126 41 138 50 181 72 82 173 148 175 47 151 199 123 97 60 142 84 51 38 20 92 8 174 176 37 13 64 56 140 102 5 77 99 153 112 186 100 2 27 66 185 57 179 171 133 44 178 79 170 46 144 75 103 24 127 65 45 0 114 29 93 32 55 48 143 73 36 121 52 164 128 61 124 23 149 156 191 7 108 165 9 39 188 10 49 125 180 192 86 34 89 21 109 159 117 15 26 94 83 107 105 154 88 118 19 157 110 137 62 17 198 87 95 90 163 30 158 166 113 3 4 16 53 134 104 141 177 193 130 167 68 63 59 161 28 184 85 18 145 106 25 189 120 135 76 155 11 150 14 197 78 147 152 

